int NumberPatients = 108
int NumberOfRooms = 3
int NumberSurgeons = 17
int NumberOfDays = 6
Duration = [131,201,98,47,60,119,28,66,103,105,208,98,117,85,39,103,46,47,74,66,60,47,46,119,119,68,32,132,60,132,72,131,119,93,32,59,103,117,47,50,50,97,98,85,119,103,47,238,103,32,75,66,130,119,32,47,159,32,131,75,32,58,119,260,47,119,119,103,277,53,32,75,67,74,32,103,59,146,66,93,119,119,46,32,32,201,72,103,66,50,210,105,238,47,100,31,61,81,85,103,60,260,66,119,103,66,40,66];
Priority = [0,0,0,0,0,0,0,0,0,0,1,0,0,0,0,0,0,0,0,0,0,0,0,0,0,0,0,0,0,0,0,0,0,0,0,0,0,0,0,0,0,0,0,0,1,0,0,0,0,0,0,0,0,1,0,0,0,0,0,0,0,0,0,0,0,1,0,0,0,0,0,0,0,0,0,0,1,0,0,0,0,0,0,0,0,0,0,0,0,0,0,0,0,0,0,0,0,0,0,0,0,0,0,0,0,0,0,0];
Waiting = [387,396,39,161,32,317,176,207,556,151,25,66,155,128,50,50,214,121,36,324,281,74,73,37,60,122,113,220,207,127,25,277,256,106,84,221,32,25,57,431,21,51,56,162,155,49,53,85,106,70,123,127,70,39,80,107,85,228,50,242,155,148,70,316,52,49,387,487,35,358,52,116,66,220,354,37,456,57,36,137,84,25,49,60,144,319,120,190,67,93,71,23,106,58,310,155,66,259,21,24,52,141,84,473,94,102,113,169];
Surgeon = [1,4,2,5,2,3,10,6,7,5,1,5,2,2,3,1,4,2,3,5,7,4,5,5,4,5,6,4,1,4,5,2,5,3,1,1,6,10,4,1,3,1,4,1,4,1,5,3,10,6,3,6,4,3,3,4,1,2,9,2,9,6,8,5,6,2,1,6,3,3,5,13,13,1,2,2,3,7,2,2,6,4,1,1,3,4,6,8,3,9,8,2,3,2,1,2,3,3,2,7,2,2,3,8,4,2,3,3];
BlockAvailability = [[[0,0],[0,0],[0,1]],[[1,0],[1,0],[1,0]],[[0,0],[0,1],[1,0]],[[1,0],[0,0],[0,0]],[[0,0],[1,0],[1,0]],[[0,0],[0,0],[0,0]]];
SurgeonAvailability = [[[1,1],[1,1],[1,1],[1,1],[1,1],[1,1]],[[1,1],[1,1],[1,1],[1,1],[1,1],[1,1]],[[1,1],[1,1],[1,1],[1,1],[1,1],[1,1]],[[1,1],[1,1],[1,1],[1,1],[1,1],[1,1]],[[1,1],[1,1],[1,1],[1,1],[1,1],[1,1]],[[1,1],[1,1],[1,1],[1,1],[1,1],[1,1]],[[1,1],[1,1],[1,1],[1,1],[1,1],[1,1]],[[1,1],[1,1],[1,1],[1,1],[1,1],[1,1]],[[1,1],[1,1],[1,1],[1,1],[1,1],[1,1]],[[1,1],[1,1],[1,1],[1,1],[1,1],[1,1]],[[1,1],[1,1],[1,1],[1,1],[1,1],[1,1]],[[1,1],[1,1],[1,1],[1,1],[1,1],[1,1]],[[1,1],[1,1],[1,1],[1,1],[1,1],[1,1]],[[1,1],[1,1],[1,1],[1,1],[1,1],[1,1]],[[1,1],[1,1],[1,1],[1,1],[1,1],[1,1]],[[1,1],[1,1],[1,1],[1,1],[1,1],[1,1]],[[1,1],[1,1],[1,1],[1,1],[1,1],[1,1]]];
